\ Model AlloyCombination
\ LP format - for model browsing. Use MPS format to capture full model detail.
Minimize
  5 X[0,0] + 5 X[0,1] + 5 X[0,2] + 5 X[0,3] + 5 X[0,4] + 5 X[0,5] + 5 X[0,6]
   + 5 X[0,7] + 5 X[0,8] + 5 X[0,9] + 5 X[0,10] + 5 X[0,11] + 10 X[1,0]
   + 10 X[1,1] + 10 X[1,2] + 10 X[1,3] + 10 X[1,4] + 10 X[1,5] + 10 X[1,6]
   + 10 X[1,7] + 10 X[1,8] + 10 X[1,9] + 10 X[1,10] + 10 X[1,11] + 9 X[2,0]
   + 9 X[2,1] + 9 X[2,2] + 9 X[2,3] + 9 X[2,4] + 9 X[2,5] + 9 X[2,6]
   + 9 X[2,7] + 9 X[2,8] + 9 X[2,9] + 9 X[2,10] + 9 X[2,11] + 7 X[3,0]
   + 7 X[3,1] + 7 X[3,2] + 7 X[3,3] + 7 X[3,4] + 7 X[3,5] + 7 X[3,6]
   + 7 X[3,7] + 7 X[3,8] + 7 X[3,9] + 7 X[3,10] + 7 X[3,11] + 8.5 X[4,0]
   + 8.5 X[4,1] + 8.5 X[4,2] + 8.5 X[4,3] + 8.5 X[4,4] + 8.5 X[4,5]
   + 8.5 X[4,6] + 8.5 X[4,7] + 8.5 X[4,8] + 8.5 X[4,9] + 8.5 X[4,10]
   + 8.5 X[4,11] + 20 Z[0,0] + 20 Z[0,1] + 20 Z[0,2] + 20 Z[0,3]
   + 20 Z[0,4] + 20 Z[0,5] + 20 Z[0,6] + 20 Z[0,7] + 20 Z[0,8] + 20 Z[0,9]
   + 20 Z[0,10] + 20 Z[0,11] + 10 Z[1,0] + 10 Z[1,1] + 10 Z[1,2]
   + 10 Z[1,3] + 10 Z[1,4] + 10 Z[1,5] + 10 Z[1,6] + 10 Z[1,7] + 10 Z[1,8]
   + 10 Z[1,9] + 10 Z[1,10] + 10 Z[1,11] + 5 Z[2,0] + 5 Z[2,1] + 5 Z[2,2]
   + 5 Z[2,3] + 5 Z[2,4] + 5 Z[2,5] + 5 Z[2,6] + 5 Z[2,7] + 5 Z[2,8]
   + 5 Z[2,9] + 5 Z[2,10] + 5 Z[2,11] + 100 E[0] + 100 E[1] + 100 E[2]
   + 100 E[3] + 100 E[4] + 100 E[5] + 100 E[6] + 100 E[7] + 100 E[8]
   + 100 E[9] + 100 E[10] + 100 E[11] + [ 0.3 X[4,0] * E[0]
   + 0.3 X[4,1] * E[1] + 0.3 X[4,2] * E[2] + 0.3 X[4,3] * E[3]
   + 0.3 X[4,4] * E[4] + 0.3 X[4,5] * E[5] + 0.3 X[4,6] * E[6]
   + 0.3 X[4,7] * E[7] + 0.3 X[4,8] * E[8] + 0.3 X[4,9] * E[9]
   + 0.3 X[4,10] * E[10] + 0.3 X[4,11] * E[11] ] / 2 
Subject To
 con1[0]-: X[0,0] <= 90
 con1[0]-: X[0,1] <= 90
 con1[0]-: X[0,2] <= 90
 con1[0]-: X[0,3] <= 90
 con1[0]-: X[0,4] <= 90
 con1[0]-: X[0,5] <= 90
 con1[0]-: X[0,6] <= 90
 con1[0]-: X[0,7] <= 90
 con1[0]-: X[0,8] <= 90
 con1[0]-: X[0,9] <= 90
 con1[0]-: X[0,10] <= 90
 con1[0]-: X[0,11] <= 90
 con1[1]-: X[1,0] <= 30
 con1[1]-: X[1,1] <= 30
 con1[1]-: X[1,2] <= 30
 con1[1]-: X[1,3] <= 30
 con1[1]-: X[1,4] <= 30
 con1[1]-: X[1,5] <= 30
 con1[1]-: X[1,6] <= 30
 con1[1]-: X[1,7] <= 30
 con1[1]-: X[1,8] <= 30
 con1[1]-: X[1,9] <= 30
 con1[1]-: X[1,10] <= 30
 con1[1]-: X[1,11] <= 30
 con1[2]-: X[2,0] <= 50
 con1[2]-: X[2,1] <= 50
 con1[2]-: X[2,2] <= 50
 con1[2]-: X[2,3] <= 50
 con1[2]-: X[2,4] <= 50
 con1[2]-: X[2,5] <= 50
 con1[2]-: X[2,6] <= 50
 con1[2]-: X[2,7] <= 50
 con1[2]-: X[2,8] <= 50
 con1[2]-: X[2,9] <= 50
 con1[2]-: X[2,10] <= 50
 con1[2]-: X[2,11] <= 50
 con1[3]-: X[3,0] <= 70
 con1[3]-: X[3,1] <= 70
 con1[3]-: X[3,2] <= 70
 con1[3]-: X[3,3] <= 70
 con1[3]-: X[3,4] <= 70
 con1[3]-: X[3,5] <= 70
 con1[3]-: X[3,6] <= 70
 con1[3]-: X[3,7] <= 70
 con1[3]-: X[3,8] <= 70
 con1[3]-: X[3,9] <= 70
 con1[3]-: X[3,10] <= 70
 con1[3]-: X[3,11] <= 70
 con1[4]-: X[4,0] <= 20
 con1[4]-: X[4,1] <= 20
 con1[4]-: X[4,2] <= 20
 con1[4]-: X[4,3] <= 20
 con1[4]-: X[4,4] <= 20
 con1[4]-: X[4,5] <= 20
 con1[4]-: X[4,6] <= 20
 con1[4]-: X[4,7] <= 20
 con1[4]-: X[4,8] <= 20
 con1[4]-: X[4,9] <= 20
 con1[4]-: X[4,10] <= 20
 con1[4]-: X[4,11] <= 20
 con2[0]-: Y[0,0] + Y[1,0] + Y[2,0] <= 100
 con2[1]-: Y[0,1] + Y[1,1] + Y[2,1] <= 100
 con2[2]-: Y[0,2] + Y[1,2] + Y[2,2] <= 100
 con2[3]-: Y[0,3] + Y[1,3] + Y[2,3] <= 100
 con2[4]-: Y[0,4] + Y[1,4] + Y[2,4] <= 100
 con2[5]-: Y[0,5] + Y[1,5] + Y[2,5] <= 100
 con2[6]-: Y[0,6] + Y[1,6] + Y[2,6] <= 100
 con2[7]-: Y[0,7] + Y[1,7] + Y[2,7] <= 100
 con2[8]-: Y[0,8] + Y[1,8] + Y[2,8] <= 100
 con2[9]-: Y[0,9] + Y[1,9] + Y[2,9] <= 100
 con2[10]-: Y[0,10] + Y[1,10] + Y[2,10] <= 100
 con2[11]-: Y[0,11] + Y[1,11] + Y[2,11] <= 100
 con3[0,0]-: Y[0,0] - Z[0,0] = 25
 con3[0,1]-: Y[0,1] + Z[0,0] - Z[0,1] = 25
 con3[0,2]-: Y[0,2] + Z[0,1] - Z[0,2] = 0
 con3[0,3]-: Y[0,3] + Z[0,2] - Z[0,3] = 0
 con3[0,4]-: Y[0,4] + Z[0,3] - Z[0,4] = 0
 con3[0,5]-: Y[0,5] + Z[0,4] - Z[0,5] = 50
 con3[0,6]-: Y[0,6] + Z[0,5] - Z[0,6] = 12
 con3[0,7]-: Y[0,7] + Z[0,6] - Z[0,7] = 0
 con3[0,8]-: Y[0,8] + Z[0,7] - Z[0,8] = 10
 con3[0,9]-: Y[0,9] + Z[0,8] - Z[0,9] = 10
 con3[0,10]-: Y[0,10] + Z[0,9] - Z[0,10] = 45
 con3[0,11]-: Y[0,11] + Z[0,10] - Z[0,11] = 99
 con3[1,0]-: Y[1,0] - Z[1,0] = 10
 con3[1,1]-: Y[1,1] + Z[1,0] - Z[1,1] = 10
 con3[1,2]-: Y[1,2] + Z[1,1] - Z[1,2] = 10
 con3[1,3]-: Y[1,3] + Z[1,2] - Z[1,3] = 10
 con3[1,4]-: Y[1,4] + Z[1,3] - Z[1,4] = 10
 con3[1,5]-: Y[1,5] + Z[1,4] - Z[1,5] = 10
 con3[1,6]-: Y[1,6] + Z[1,5] - Z[1,6] = 10
 con3[1,7]-: Y[1,7] + Z[1,6] - Z[1,7] = 10
 con3[1,8]-: Y[1,8] + Z[1,7] - Z[1,8] = 10
 con3[1,9]-: Y[1,9] + Z[1,8] - Z[1,9] = 10
 con3[1,10]-: Y[1,10] + Z[1,9] - Z[1,10] = 10
 con3[1,11]-: Y[1,11] + Z[1,10] - Z[1,11] = 10
 con3[2,0]-: Y[2,0] - Z[2,0] = 5
 con3[2,1]-: Y[2,1] + Z[2,0] - Z[2,1] = 20
 con3[2,2]-: Y[2,2] + Z[2,1] - Z[2,2] = 80
 con3[2,3]-: Y[2,3] + Z[2,2] - Z[2,3] = 25
 con3[2,4]-: Y[2,4] + Z[2,3] - Z[2,4] = 50
 con3[2,5]-: Y[2,5] + Z[2,4] - Z[2,5] = 125
 con3[2,6]-: Y[2,6] + Z[2,5] - Z[2,6] = 150
 con3[2,7]-: Y[2,7] + Z[2,6] - Z[2,7] = 80
 con3[2,8]-: Y[2,8] + Z[2,7] - Z[2,8] = 40
 con3[2,9]-: Y[2,9] + Z[2,8] - Z[2,9] = 35
 con3[2,10]-: Y[2,10] + Z[2,9] - Z[2,10] = 3
 con3[2,11]-: Y[2,11] + Z[2,10] - Z[2,11] = 100
 con4[0]-: X[0,0] + X[1,0] + X[2,0] + X[3,0] + X[4,0] - Y[0,0] - Y[1,0]
   - Y[2,0] = 0
 con4[1]-: X[0,1] + X[1,1] + X[2,1] + X[3,1] + X[4,1] - Y[0,1] - Y[1,1]
   - Y[2,1] = 0
 con4[2]-: X[0,2] + X[1,2] + X[2,2] + X[3,2] + X[4,2] - Y[0,2] - Y[1,2]
   - Y[2,2] = 0
 con4[3]-: X[0,3] + X[1,3] + X[2,3] + X[3,3] + X[4,3] - Y[0,3] - Y[1,3]
   - Y[2,3] = 0
 con4[4]-: X[0,4] + X[1,4] + X[2,4] + X[3,4] + X[4,4] - Y[0,4] - Y[1,4]
   - Y[2,4] = 0
 con4[5]-: X[0,5] + X[1,5] + X[2,5] + X[3,5] + X[4,5] - Y[0,5] - Y[1,5]
   - Y[2,5] = 0
 con4[6]-: X[0,6] + X[1,6] + X[2,6] + X[3,6] + X[4,6] - Y[0,6] - Y[1,6]
   - Y[2,6] = 0
 con4[7]-: X[0,7] + X[1,7] + X[2,7] + X[3,7] + X[4,7] - Y[0,7] - Y[1,7]
   - Y[2,7] = 0
 con4[8]-: X[0,8] + X[1,8] + X[2,8] + X[3,8] + X[4,8] - Y[0,8] - Y[1,8]
   - Y[2,8] = 0
 con4[9]-: X[0,9] + X[1,9] + X[2,9] + X[3,9] + X[4,9] - Y[0,9] - Y[1,9]
   - Y[2,9] = 0
 con4[10]-: X[0,10] + X[1,10] + X[2,10] + X[3,10] + X[4,10] - Y[0,10]
   - Y[1,10] - Y[2,10] = 0
 con4[11]-: X[0,11] + X[1,11] + X[2,11] + X[3,11] + X[4,11] - Y[0,11]
   - Y[1,11] - Y[2,11] = 0
 con5[0]-: 0.15 X[1,0] + 0.1 X[2,0] + 0.16 X[3,0] + 0.1 X[4,0] - 0.1 Y[0,0]
   - 0.08 Y[1,0] = 0
 con5[1]-: 0.15 X[1,1] + 0.1 X[2,1] + 0.16 X[3,1] + 0.1 X[4,1] - 0.1 Y[0,1]
   - 0.08 Y[1,1] = 0
 con5[2]-: 0.15 X[1,2] + 0.1 X[2,2] + 0.16 X[3,2] + 0.1 X[4,2] - 0.1 Y[0,2]
   - 0.08 Y[1,2] = 0
 con5[3]-: 0.15 X[1,3] + 0.1 X[2,3] + 0.16 X[3,3] + 0.1 X[4,3] - 0.1 Y[0,3]
   - 0.08 Y[1,3] = 0
 con5[4]-: 0.15 X[1,4] + 0.1 X[2,4] + 0.16 X[3,4] + 0.1 X[4,4] - 0.1 Y[0,4]
   - 0.08 Y[1,4] = 0
 con5[5]-: 0.15 X[1,5] + 0.1 X[2,5] + 0.16 X[3,5] + 0.1 X[4,5] - 0.1 Y[0,5]
   - 0.08 Y[1,5] = 0
 con5[6]-: 0.15 X[1,6] + 0.1 X[2,6] + 0.16 X[3,6] + 0.1 X[4,6] - 0.1 Y[0,6]
   - 0.08 Y[1,6] = 0
 con5[7]-: 0.15 X[1,7] + 0.1 X[2,7] + 0.16 X[3,7] + 0.1 X[4,7] - 0.1 Y[0,7]
   - 0.08 Y[1,7] = 0
 con5[8]-: 0.15 X[1,8] + 0.1 X[2,8] + 0.16 X[3,8] + 0.1 X[4,8] - 0.1 Y[0,8]
   - 0.08 Y[1,8] = 0
 con5[9]-: 0.15 X[1,9] + 0.1 X[2,9] + 0.16 X[3,9] + 0.1 X[4,9] - 0.1 Y[0,9]
   - 0.08 Y[1,9] = 0
 con5[10]-: 0.15 X[1,10] + 0.1 X[2,10] + 0.16 X[3,10] + 0.1 X[4,10]
   - 0.1 Y[0,10] - 0.08 Y[1,10] = 0
 con5[11]-: 0.15 X[1,11] + 0.1 X[2,11] + 0.16 X[3,11] + 0.1 X[4,11]
   - 0.1 Y[0,11] - 0.08 Y[1,11] = 0
 con6[0]-: 0.18 X[0,0] + 0.25 X[1,0] + 0.15 X[2,0] + 0.14 X[3,0]
   - 0.18 Y[0,0] - 0.18 Y[1,0] - 0.18 Y[2,0] = 0
 con6[1]-: 0.18 X[0,1] + 0.25 X[1,1] + 0.15 X[2,1] + 0.14 X[3,1]
   - 0.18 Y[0,1] - 0.18 Y[1,1] - 0.18 Y[2,1] = 0
 con6[2]-: 0.18 X[0,2] + 0.25 X[1,2] + 0.15 X[2,2] + 0.14 X[3,2]
   - 0.18 Y[0,2] - 0.18 Y[1,2] - 0.18 Y[2,2] = 0
 con6[3]-: 0.18 X[0,3] + 0.25 X[1,3] + 0.15 X[2,3] + 0.14 X[3,3]
   - 0.18 Y[0,3] - 0.18 Y[1,3] - 0.18 Y[2,3] = 0
 con6[4]-: 0.18 X[0,4] + 0.25 X[1,4] + 0.15 X[2,4] + 0.14 X[3,4]
   - 0.18 Y[0,4] - 0.18 Y[1,4] - 0.18 Y[2,4] = 0
 con6[5]-: 0.18 X[0,5] + 0.25 X[1,5] + 0.15 X[2,5] + 0.14 X[3,5]
   - 0.18 Y[0,5] - 0.18 Y[1,5] - 0.18 Y[2,5] = 0
 con6[6]-: 0.18 X[0,6] + 0.25 X[1,6] + 0.15 X[2,6] + 0.14 X[3,6]
   - 0.18 Y[0,6] - 0.18 Y[1,6] - 0.18 Y[2,6] = 0
 con6[7]-: 0.18 X[0,7] + 0.25 X[1,7] + 0.15 X[2,7] + 0.14 X[3,7]
   - 0.18 Y[0,7] - 0.18 Y[1,7] - 0.18 Y[2,7] = 0
 con6[8]-: 0.18 X[0,8] + 0.25 X[1,8] + 0.15 X[2,8] + 0.14 X[3,8]
   - 0.18 Y[0,8] - 0.18 Y[1,8] - 0.18 Y[2,8] = 0
 con6[9]-: 0.18 X[0,9] + 0.25 X[1,9] + 0.15 X[2,9] + 0.14 X[3,9]
   - 0.18 Y[0,9] - 0.18 Y[1,9] - 0.18 Y[2,9] = 0
 con6[10]-: 0.18 X[0,10] + 0.25 X[1,10] + 0.15 X[2,10] + 0.14 X[3,10]
   - 0.18 Y[0,10] - 0.18 Y[1,10] - 0.18 Y[2,10] = 0
 con6[11]-: 0.18 X[0,11] + 0.25 X[1,11] + 0.15 X[2,11] + 0.14 X[3,11]
   - 0.18 Y[0,11] - 0.18 Y[1,11] - 0.18 Y[2,11] = 0
 con7[0]-: 0.04 X[1,0] + 0.02 X[2,0] + 0.05 X[3,0] + 0.03 X[4,0]
   - 0.1 Y[0,0] - 0.1 Y[1,0] - 0.1 Y[2,0] <= 0
 con7[1]-: 0.04 X[1,1] + 0.02 X[2,1] + 0.05 X[3,1] + 0.03 X[4,1]
   - 0.1 Y[0,1] - 0.1 Y[1,1] - 0.1 Y[2,1] <= 0
 con7[2]-: 0.04 X[1,2] + 0.02 X[2,2] + 0.05 X[3,2] + 0.03 X[4,2]
   - 0.1 Y[0,2] - 0.1 Y[1,2] - 0.1 Y[2,2] <= 0
 con7[3]-: 0.04 X[1,3] + 0.02 X[2,3] + 0.05 X[3,3] + 0.03 X[4,3]
   - 0.1 Y[0,3] - 0.1 Y[1,3] - 0.1 Y[2,3] <= 0
 con7[4]-: 0.04 X[1,4] + 0.02 X[2,4] + 0.05 X[3,4] + 0.03 X[4,4]
   - 0.1 Y[0,4] - 0.1 Y[1,4] - 0.1 Y[2,4] <= 0
 con7[5]-: 0.04 X[1,5] + 0.02 X[2,5] + 0.05 X[3,5] + 0.03 X[4,5]
   - 0.1 Y[0,5] - 0.1 Y[1,5] - 0.1 Y[2,5] <= 0
 con7[6]-: 0.04 X[1,6] + 0.02 X[2,6] + 0.05 X[3,6] + 0.03 X[4,6]
   - 0.1 Y[0,6] - 0.1 Y[1,6] - 0.1 Y[2,6] <= 0
 con7[7]-: 0.04 X[1,7] + 0.02 X[2,7] + 0.05 X[3,7] + 0.03 X[4,7]
   - 0.1 Y[0,7] - 0.1 Y[1,7] - 0.1 Y[2,7] <= 0
 con7[8]-: 0.04 X[1,8] + 0.02 X[2,8] + 0.05 X[3,8] + 0.03 X[4,8]
   - 0.1 Y[0,8] - 0.1 Y[1,8] - 0.1 Y[2,8] <= 0
 con7[9]-: 0.04 X[1,9] + 0.02 X[2,9] + 0.05 X[3,9] + 0.03 X[4,9]
   - 0.1 Y[0,9] - 0.1 Y[1,9] - 0.1 Y[2,9] <= 0
 con7[10]-: 0.04 X[1,10] + 0.02 X[2,10] + 0.05 X[3,10] + 0.03 X[4,10]
   - 0.1 Y[0,10] - 0.1 Y[1,10] - 0.1 Y[2,10] <= 0
 con7[11]-: 0.04 X[1,11] + 0.02 X[2,11] + 0.05 X[3,11] + 0.03 X[4,11]
   - 0.1 Y[0,11] - 0.1 Y[1,11] - 0.1 Y[2,11] <= 0
 con8[0]-: X[0,0] + 0.88 X[1,0] + 0.94 X[2,0] + 0.85 X[3,0] + 0.91 X[4,0]
   - 5 Y[0,0] - 5 Y[1,0] - 5 Y[2,0] = 0
 con8[1]-: X[0,1] + 0.88 X[1,1] + 0.94 X[2,1] + 0.85 X[3,1] + 0.91 X[4,1]
   - 5 Y[0,1] - 5 Y[1,1] - 5 Y[2,1] = 0
 con8[2]-: X[0,2] + 0.88 X[1,2] + 0.94 X[2,2] + 0.85 X[3,2] + 0.91 X[4,2]
   - 5 Y[0,2] - 5 Y[1,2] - 5 Y[2,2] = 0
 con8[3]-: X[0,3] + 0.88 X[1,3] + 0.94 X[2,3] + 0.85 X[3,3] + 0.91 X[4,3]
   - 5 Y[0,3] - 5 Y[1,3] - 5 Y[2,3] = 0
 con8[4]-: X[0,4] + 0.88 X[1,4] + 0.94 X[2,4] + 0.85 X[3,4] + 0.91 X[4,4]
   - 5 Y[0,4] - 5 Y[1,4] - 5 Y[2,4] = 0
 con8[5]-: X[0,5] + 0.88 X[1,5] + 0.94 X[2,5] + 0.85 X[3,5] + 0.91 X[4,5]
   - 5 Y[0,5] - 5 Y[1,5] - 5 Y[2,5] = 0
 con8[6]-: X[0,6] + 0.88 X[1,6] + 0.94 X[2,6] + 0.85 X[3,6] + 0.91 X[4,6]
   - 5 Y[0,6] - 5 Y[1,6] - 5 Y[2,6] = 0
 con8[7]-: X[0,7] + 0.88 X[1,7] + 0.94 X[2,7] + 0.85 X[3,7] + 0.91 X[4,7]
   - 5 Y[0,7] - 5 Y[1,7] - 5 Y[2,7] = 0
 con8[8]-: X[0,8] + 0.88 X[1,8] + 0.94 X[2,8] + 0.85 X[3,8] + 0.91 X[4,8]
   - 5 Y[0,8] - 5 Y[1,8] - 5 Y[2,8] = 0
 con8[9]-: X[0,9] + 0.88 X[1,9] + 0.94 X[2,9] + 0.85 X[3,9] + 0.91 X[4,9]
   - 5 Y[0,9] - 5 Y[1,9] - 5 Y[2,9] = 0
 con8[10]-: X[0,10] + 0.88 X[1,10] + 0.94 X[2,10] + 0.85 X[3,10]
   + 0.91 X[4,10] - 5 Y[0,10] - 5 Y[1,10] - 5 Y[2,10] = 0
 con8[11]-: X[0,11] + 0.88 X[1,11] + 0.94 X[2,11] + 0.85 X[3,11]
   + 0.91 X[4,11] - 5 Y[0,11] - 5 Y[1,11] - 5 Y[2,11] = 0
Bounds
Binaries
 E[0] E[1] E[2] E[3] E[4] E[5] E[6] E[7] E[8] E[9] E[10] E[11]
End
